c instance by G2
c solution = 011110000100101
c Known solution cost is 733 
p cnf 15 30
w 40 86 78 99 18 50 21 36 1 45 84 39 63 2 71
9 11 5 0
-10 -1 -8 0
3 14 11 0
5 10 3 0
9 -12 -4 0
1 -9 -10 0
-3 -4 -1 0
12 10 9 0
-15 14 -7 0
9 14 10 0
5 -10 -9 0
3 -12 -4 0
-14 -6 -2 0
13 11 -3 0
12 8 -7 0
-11 14 -2 0
-6 11 -2 0
-2 -8 6 0
-1 7 6 0
-14 -15 7 0
-10 -3 -12 0
9 2 -15 0
4 -11 -5 0
13 8 -14 0
9 -4 3 0
14 4 7 0
3 6 -12 0
-5 15 12 0
3 14 11 0
8 -6 -3 0
